Version identifier: 22.1.1.0 | 2022-11-28 | 9160aff4d
CPXPARAM_ClockType                               1
CPXPARAM_Read_DataCheck                          1
CPXPARAM_Threads                                 1
CPXPARAM_TimeLimit                               7200
CPXPARAM_MIP_Tolerances_AbsMIPGap                0
CPXPARAM_MIP_Tolerances_MIPGap                   0
CPXPARAM_MIP_Tolerances_Integrality              0
Tried aggregator 2 times.
MIP Presolve eliminated 138307 rows and 4 columns.
MIP Presolve modified 61978 coefficients.
Aggregator did 1003 substitutions.
Reduced MIP has 78302 rows, 13035 columns, and 391919 nonzeros.
Reduced MIP has 13035 binaries, 0 generals, 0 SOSs, and 0 indicators.
Presolve time = 2.05 sec. (1152.28 ticks)
Probing time = 0.03 sec. (6.79 ticks)
Tried aggregator 1 time.
Detecting symmetries...
MIP Presolve eliminated 270 rows and 0 columns.
Reduced MIP has 78032 rows, 13035 columns, and 387329 nonzeros.
Reduced MIP has 13035 binaries, 0 generals, 0 SOSs, and 0 indicators.
Presolve time = 0.97 sec. (552.80 ticks)
Probing time = 0.03 sec. (6.79 ticks)
Clique table members: 70298.
MIP emphasis: balance optimality and feasibility.
MIP search method: dynamic search.
Parallel mode: none, using 1 thread.
Root relaxation solution time = 251.95 sec. (51481.67 ticks)

        Nodes                                         Cuts/
   Node  Left     Objective  IInf  Best Integer    Best Bound    ItCnt     Gap

      0     0     1319.1333  2540                   1319.1333   113048         
      0     0     1180.0000  2435                   Cuts: 292   695668         

Clique cuts applied:  307
Implied bound cuts applied:  1
Zero-half cuts applied:  415
Lift and project cuts applied:  6
Gomory fractional cuts applied:  139

Root node processing (before b&c):
  Real time             = 7200.27 sec. (2701637.63 ticks)
Sequential b&c:
  Real time             =    0.00 sec. (0.00 ticks)
                          ------------
Total (root+branch&cut) = 7200.27 sec. (2701637.63 ticks)
Solution is infeasible.

---------------------
@@@ MIP_time_limit_infeasible
Traceback (most recent call last):
  File "/scratch/scherif/DiverseSAT-journal_sup/DiverseSAT_Supplementary_Experiments/experiment-1/cplex/jobs/../solvers/CPLEX-IW-SE.py", line 105, in <module>
    print(f">>> Benchmark {os.path.basename(cnf_file)} k {k} OPT {int(prob.solution.get_objective_value())}"
  File "/users/scherif/.local/lib/python3.9/site-packages/cplex/_internal/_subinterfaces.py", line 7211, in get_objective_value
    return CPX_PROC.getobjval(self._env._e, self._cplex._lp)
  File "/users/scherif/.local/lib/python3.9/site-packages/cplex/_internal/_procedural.py", line 2055, in getobjval
    check_status(env, status)
  File "/users/scherif/.local/lib/python3.9/site-packages/cplex/_internal/_procedural.py", line 249, in __call__
    raise CplexSolverError(error_string, env, status)
cplex.exceptions.errors.CplexSolverError: CPLEX Error  1217: No solution exists.
